c description: Subset cardinality formula for fast_gnp_random_graph(6,6,0.9)
c generator: CNFgen (0.9.0)
c copyright: (C) 2012-2020 Massimo Lauria <massimo.lauria@uniroma1.it>
c url: https://massimolauria.net/cnfgen
c
p cnf 32 138
1 2 3 4 0
1 2 3 5 0
1 2 3 6 0
1 2 4 5 0
1 2 4 6 0
1 2 5 6 0
1 3 4 5 0
1 3 4 6 0
1 3 5 6 0
1 4 5 6 0
2 3 4 5 0
2 3 4 6 0
2 3 5 6 0
2 4 5 6 0
3 4 5 6 0
7 8 9 0
7 8 10 0
7 8 11 0
7 9 10 0
7 9 11 0
7 10 11 0
8 9 10 0
8 9 11 0
8 10 11 0
9 10 11 0
12 13 14 0
12 13 15 0
12 13 16 0
12 14 15 0
12 14 16 0
12 15 16 0
13 14 15 0
13 14 16 0
13 15 16 0
14 15 16 0
17 18 19 0
17 18 20 0
17 18 21 0
17 19 20 0
17 19 21 0
17 20 21 0
18 19 20 0
18 19 21 0
18 20 21 0
19 20 21 0
22 23 24 25 0
22 23 24 26 0
22 23 24 27 0
22 23 25 26 0
22 23 25 27 0
22 23 26 27 0
22 24 25 26 0
22 24 25 27 0
22 24 26 27 0
22 25 26 27 0
23 24 25 26 0
23 24 25 27 0
23 24 26 27 0
23 25 26 27 0
24 25 26 27 0
28 29 30 0
28 29 31 0
28 29 32 0
28 30 31 0
28 30 32 0
28 31 32 0
29 30 31 0
29 30 32 0
29 31 32 0
30 31 32 0
-1 -7 -22 0
-1 -7 -28 0
-1 -22 -28 0
-7 -22 -28 0
-2 -8 -12 -17 0
-2 -8 -12 -23 0
-2 -8 -12 -29 0
-2 -8 -17 -23 0
-2 -8 -17 -29 0
-2 -8 -23 -29 0
-2 -12 -17 -23 0
-2 -12 -17 -29 0
-2 -12 -23 -29 0
-2 -17 -23 -29 0
-8 -12 -17 -23 0
-8 -12 -17 -29 0
-8 -12 -23 -29 0
-8 -17 -23 -29 0
-12 -17 -23 -29 0
-3 -9 -13 -18 0
-3 -9 -13 -24 0
-3 -9 -13 -30 0
-3 -9 -18 -24 0
-3 -9 -18 -30 0
-3 -9 -24 -30 0
-3 -13 -18 -24 0
-3 -13 -18 -30 0
-3 -13 -24 -30 0
-3 -18 -24 -30 0
-9 -13 -18 -24 0
-9 -13 -18 -30 0
-9 -13 -24 -30 0
-9 -18 -24 -30 0
-13 -18 -24 -30 0
-4 -14 -19 0
-4 -14 -25 0
-4 -19 -25 0
-14 -19 -25 0
-5 -10 -15 -20 0
-5 -10 -15 -26 0
-5 -10 -15 -31 0
-5 -10 -20 -26 0
-5 -10 -20 -31 0
-5 -10 -26 -31 0
-5 -15 -20 -26 0
-5 -15 -20 -31 0
-5 -15 -26 -31 0
-5 -20 -26 -31 0
-10 -15 -20 -26 0
-10 -15 -20 -31 0
-10 -15 -26 -31 0
-10 -20 -26 -31 0
-15 -20 -26 -31 0
-6 -11 -16 -21 0
-6 -11 -16 -27 0
-6 -11 -16 -32 0
-6 -11 -21 -27 0
-6 -11 -21 -32 0
-6 -11 -27 -32 0
-6 -16 -21 -27 0
-6 -16 -21 -32 0
-6 -16 -27 -32 0
-6 -21 -27 -32 0
-11 -16 -21 -27 0
-11 -16 -21 -32 0
-11 -16 -27 -32 0
-11 -21 -27 -32 0
-16 -21 -27 -32 0